9246
1 0 1 1 1 1 1 0 1 1
9 2 2 9 9 2 2 2 2 2 2 2 2 2 2 2 2 2 2 3 3 3 2 3 3 3 3 3 3 3 3 3 3 3 3 3 3 3 3 6 6 6 8 6 8 8 8 8 8 8 3 8 6 6 6 6 6 6 6 6 6 5 5 6 5 5 5 6 6 0 0 0 0 5 9 0 0 0 0 0 0 0 4 4 4 4 4 4 4 4 4 9 4 9 4 9 9 4 2 2
